set N := 1 2 3 4 5 6 7 8 9 10 11 12 13 14 15 16 17 18 19 20 21 22 23 24 25 26 27 28 29 30 31 32 33 34 35 36 37 38 39 40 41 42 43 44 45 46 47 48 49 50 51 52 53 54 55 56 57 58 59 60 ;

set M := 1 2 3 4 5 6 7 8 9 10 ;

param m := 10;

param: T: time :=
1 1 72
1 2 32
1 3 93
1 4 88
1 5 52
1 6 94
1 7 63
1 8 76
1 9 40
1 10 56
2 1 73
2 2 26
2 3 39
2 4 55
2 5 72
2 6 89
2 7 6
2 8 1
2 9 71
2 10 3
3 1 7
3 2 28
3 3 27
3 4 1
3 5 57
3 6 29
3 7 2
3 8 15
3 9 97
3 10 57
4 1 26
4 2 81
4 3 85
4 4 48
4 5 12
4 6 93
4 7 23
4 8 4
4 9 85
4 10 64
5 1 53
5 2 16
5 3 43
5 4 97
5 5 90
5 6 49
5 7 54
5 8 88
5 9 59
5 10 87
6 1 48
6 2 77
6 3 62
6 4 29
6 5 79
6 6 44
6 7 16
6 8 85
6 9 52
6 10 27
7 1 1
7 2 97
7 3 30
7 4 80
7 5 30
7 6 7
7 7 87
7 8 18
7 9 30
7 10 21
8 1 72
8 2 8
8 3 86
8 4 61
8 5 71
8 6 10
8 7 99
8 8 6
8 9 14
8 10 75
9 1 48
9 2 36
9 3 48
9 4 47
9 5 61
9 6 62
9 7 86
9 8 31
9 9 50
9 10 97
10 1 82
10 2 32
10 3 40
10 4 85
10 5 2
10 6 62
10 7 9
10 8 18
10 9 8
10 10 82
11 1 24
11 2 82
11 3 50
11 4 19
11 5 32
11 6 41
11 7 42
11 8 71
11 9 49
11 10 23
12 1 66
12 2 16
12 3 41
12 4 73
12 5 43
12 6 45
12 7 4
12 8 19
12 9 42
12 10 21
13 1 90
13 2 7
13 3 33
13 4 23
13 5 24
13 6 47
13 7 2
13 8 17
13 9 4
13 10 74
14 1 74
14 2 80
14 3 6
14 4 86
14 5 32
14 6 53
14 7 9
14 8 39
14 9 3
14 10 12
15 1 22
15 2 2
15 3 67
15 4 71
15 5 81
15 6 8
15 7 14
15 8 74
15 9 42
15 10 48
16 1 29
16 2 17
16 3 93
16 4 85
16 5 11
16 6 16
16 7 60
16 8 12
16 9 30
16 10 29
17 1 73
17 2 51
17 3 3
17 4 75
17 5 29
17 6 83
17 7 22
17 8 14
17 9 62
17 10 67
18 1 67
18 2 80
18 3 3
18 4 54
18 5 10
18 6 99
18 7 90
18 8 32
18 9 59
18 10 9
19 1 79
19 2 56
19 3 22
19 4 69
19 5 43
19 6 42
19 7 83
19 8 43
19 9 59
19 10 23
20 1 24
20 2 76
20 3 50
20 4 7
20 5 21
20 6 1
20 7 97
20 8 85
20 9 10
20 10 46
21 1 65
21 2 76
21 3 11
21 4 47
21 5 77
21 6 1
21 7 28
21 8 51
21 9 66
21 10 20
22 1 88
22 2 91
22 3 72
22 4 10
22 5 79
22 6 71
22 7 51
22 8 15
22 9 85
22 10 61
23 1 34
23 2 27
23 3 62
23 4 35
23 5 45
23 6 81
23 7 72
23 8 60
23 9 69
23 10 60
24 1 77
24 2 44
24 3 15
24 4 46
24 5 73
24 6 2
24 7 34
24 8 66
24 9 92
24 10 74
25 1 81
25 2 30
25 3 29
25 4 36
25 5 27
25 6 29
25 7 53
25 8 63
25 9 52
25 10 75
26 1 14
26 2 46
26 3 97
26 4 78
26 5 59
26 6 73
26 7 47
26 8 2
26 9 15
26 10 27
27 1 51
27 2 35
27 3 95
27 4 43
27 5 37
27 6 89
27 7 61
27 8 55
27 9 62
27 10 86
28 1 16
28 2 11
28 3 88
28 4 2
28 5 20
28 6 28
28 7 3
28 8 96
28 9 83
28 10 31
29 1 12
29 2 29
29 3 31
29 4 91
29 5 66
29 6 44
29 7 73
29 8 58
29 9 19
29 10 71
30 1 19
30 2 46
30 3 2
30 4 94
30 5 23
30 6 27
30 7 83
30 8 53
30 9 42
30 10 37
31 1 53
31 2 5
31 3 46
31 4 99
31 5 13
31 6 58
31 7 13
31 8 20
31 9 10
31 10 49
32 1 97
32 2 5
32 3 19
32 4 13
32 5 62
32 6 14
32 7 56
32 8 92
32 9 96
32 10 50
33 1 1
33 2 82
33 3 71
33 4 33
33 5 32
33 6 80
33 7 7
33 8 25
33 9 33
33 10 16
34 1 49
34 2 99
34 3 98
34 4 69
34 5 74
34 6 73
34 7 59
34 8 7
34 9 76
34 10 38
35 1 9
35 2 83
35 3 14
35 4 59
35 5 89
35 6 97
35 7 97
35 8 49
35 9 84
35 10 4
36 1 63
36 2 4
36 3 9
36 4 6
36 5 70
36 6 71
36 7 6
36 8 92
36 9 85
36 10 9
37 1 89
37 2 89
37 3 78
37 4 13
37 5 93
37 6 40
37 7 27
37 8 60
37 9 7
37 10 35
38 1 92
38 2 76
38 3 13
38 4 53
38 5 39
38 6 18
38 7 67
38 8 86
38 9 89
38 10 55
39 1 73
39 2 65
39 3 48
39 4 71
39 5 39
39 6 97
39 7 30
39 8 17
39 9 36
39 10 88
40 1 84
40 2 97
40 3 85
40 4 19
40 5 91
40 6 70
40 7 34
40 8 82
40 9 73
40 10 85
41 1 14
41 2 15
41 3 56
41 4 2
41 5 88
41 6 69
41 7 69
41 8 44
41 9 23
41 10 16
42 1 57
42 2 7
42 3 42
42 4 72
42 5 60
42 6 98
42 7 59
42 8 94
42 9 78
42 10 96
43 1 88
43 2 83
43 3 20
43 4 56
43 5 77
43 6 80
43 7 13
43 8 82
43 9 16
43 10 69
44 1 18
44 2 66
44 3 13
44 4 1
44 5 77
44 6 49
44 7 51
44 8 3
44 9 88
44 10 52
45 1 52
45 2 54
45 3 82
45 4 3
45 5 16
45 6 27
45 7 52
45 8 28
45 9 18
45 10 19
46 1 56
46 2 4
46 3 81
46 4 52
46 5 94
46 6 93
46 7 52
46 8 86
46 9 31
46 10 81
47 1 39
47 2 83
47 3 7
47 4 19
47 5 14
47 6 30
47 7 79
47 8 24
47 9 68
47 10 79
48 1 71
48 2 98
48 3 77
48 4 4
48 5 11
48 6 59
48 7 17
48 8 39
48 9 13
48 10 96
49 1 36
49 2 74
49 3 20
49 4 7
49 5 81
49 6 25
49 7 4
49 8 64
49 9 19
49 10 78
50 1 1
50 2 21
50 3 4
50 4 15
50 5 25
50 6 52
50 7 4
50 8 23
50 9 1
50 10 5
51 1 60
51 2 85
51 3 80
51 4 85
51 5 48
51 6 98
51 7 52
51 8 15
51 9 73
51 10 28
52 1 71
52 2 36
52 3 16
52 4 46
52 5 40
52 6 42
52 7 11
52 8 90
52 9 29
52 10 69
53 1 16
53 2 34
53 3 36
53 4 72
53 5 12
53 6 59
53 7 95
53 8 71
53 9 45
53 10 81
54 1 92
54 2 36
54 3 98
54 4 63
54 5 67
54 6 60
54 7 40
54 8 6
54 9 81
54 10 27
55 1 12
55 2 19
55 3 96
55 4 75
55 5 32
55 6 4
55 7 98
55 8 15
55 9 41
55 10 95
56 1 42
56 2 53
56 3 7
56 4 59
56 5 21
56 6 31
56 7 66
56 8 22
56 9 80
56 10 77
57 1 77
57 2 91
57 3 21
57 4 36
57 5 4
57 6 14
57 7 74
57 8 16
57 9 56
57 10 27
58 1 36
58 2 74
58 3 61
58 4 47
58 5 95
58 6 37
58 7 38
58 8 99
58 9 94
58 10 4
59 1 94
59 2 46
59 3 4
59 4 7
59 5 83
59 6 97
59 7 99
59 8 8
59 9 72
59 10 16
60 1 82
60 2 65
60 3 18
60 4 23
60 5 66
60 6 91
60 7 52
60 8 95
60 9 31
60 10 91
;